SPARKNaCl/why3-z3/sparknacl-aes.adb_678_13_range_check2_1.smt2
;; produced by z3_gnatprove.drv ;;
(set-info :smt-lib-version 2.5)
(set-info :source |VC generated by SPARK 2014|)
(set-info :category industrial)
(set-info :status unknown)
;;; generated by SMT-LIB2 driver
;;; SMT-LIB2 driver: bit-vectors, common part
;;; SMT-LIB2: integer arithmetic
(declare-datatypes ()
  ((int__ref (int__refqtmk (int__content Int)))))

(declare-datatypes ()
  ((t__ref (t__refqtmk (t__content (_ BitVec 32))))))

(declare-sort u32 0)

;; "to_rep"
(declare-fun to_rep (u32) (_ BitVec 32))

;; "of_rep"
(declare-fun of_rep ((_ BitVec 32)) u32)

;; "inversion_axiom"
(assert
  (forall ((x u32)) (! (= (of_rep (to_rep x)) x) :pattern ((to_rep x)) )))

;; "range_axiom"
(assert true)

;; "coerce_axiom"
(assert
  (forall ((x (_ BitVec 32)))
    (! (= (to_rep (of_rep x)) x) :pattern ((to_rep (of_rep x))) )))

(declare-sort map1 0)

;; "has_bounds"
(declare-fun has_bounds (map1
  Int
  Int) Bool)

(declare-datatypes ()
  ((us_split_fields
   (us_split_fieldsqtmk (rec__ada___sparknacl__aes__aes128_key__f map1)))))

(declare-datatypes ()
  ((us_rep (us_repqtmk (us_split_fields1 us_split_fields)))))

(declare-sort map2 0)

;; "has_bounds"
(declare-fun has_bounds1 (map2
  Int
  Int) Bool)

;; "dynamic_invariant"
(define-fun dynamic_invariant ((temp___expr_426 us_rep) (temp___is_init_422 Bool) (temp___skip_constant_423 Bool) (temp___do_toplevel_424 Bool) (temp___do_typ_inv_425 Bool)) Bool
  (has_bounds
    (rec__ada___sparknacl__aes__aes128_key__f
      (us_split_fields1 temp___expr_426))
    0
    3))

(declare-sort map3 0)

(declare-datatypes ()
  ((map__ref (map__refqtmk (map__content map3)))))

;; "has_bounds"
(declare-fun has_bounds2 (map3
  Int
  Int) Bool)

;; "get"
(declare-fun get (map3
  Int) map2)

;; "in_range"
(define-fun in_range ((x Int)) Bool
  (and (<= 0 x) (<= x 10)))

;; "dynamic_invariant_r"
(define-fun dynamic_invariant_r ((temp___expr_543 map3) (temp___is_init_539 Bool) (temp___skip_constant_540 Bool) (temp___do_toplevel_541 Bool) (temp___do_typ_inv_542 Bool)) Bool
  (and
    (has_bounds2 temp___expr_543 0 10)
    (forall ((temp___544 Int))
      (=>
        (and (<= 0 temp___544) (<= temp___544 10))
        (has_bounds1 (get temp___expr_543 temp___544) 0 3)))))

(declare-const key us_rep)

(declare-sort tinteger_32B 0)

;; "tinteger_32B'int"
(declare-fun tinteger_32Bqtint (tinteger_32B) Int)

;; "tinteger_32B'axiom"
(assert
  (forall ((i tinteger_32B))
    (and
      (<= (- 2147483648) (tinteger_32Bqtint i))
      (<= (tinteger_32Bqtint i) 2147483647))))

;; "in_range"
(define-fun in_range1 ((x Int)) Bool
  (and (<= (- 2147483648) x) (<= x 2147483647)))

;; "to_rep"
(define-fun to_rep1 ((x tinteger_32B)) Int
  (tinteger_32Bqtint x))

;; "of_rep"
(declare-fun of_rep1 (Int) tinteger_32B)

;; "inversion_axiom"
(assert
  (forall ((x tinteger_32B))
    (! (= (of_rep1 (to_rep1 x)) x) :pattern ((to_rep1 x)) )))

;; "range_axiom"
(assert
  (forall ((x tinteger_32B))
    (! (in_range1 (to_rep1 x)) :pattern ((to_rep1 x)) )))

;; "coerce_axiom"
(assert
  (forall ((x Int))
    (! (=> (in_range1 x) (= (to_rep1 (of_rep1 x)) x)) :pattern ((to_rep1
                                                                  (of_rep1 x))) )))

(declare-const round_keys map3)

;; "round_keys'unused"
(define-fun round_keysqtunused () map__ref
  (map__refqtmk round_keys))

;; "Assume"
(assert (dynamic_invariant key true false true true))

;; "Assume"
(assert (dynamic_invariant_r round_keys false false true true))

(declare-const key_index Int)

;; "key_index'unused"
(define-fun key_indexqtunused () int__ref
  (int__refqtmk key_index))

;; "H"
(assert (= key_index 0))

;; "Assume"
(assert (in_range key_index))

(declare-const rcon (_ BitVec 32))

;; "rcon'unused"
(define-fun rconqtunused () t__ref
  (t__refqtmk rcon))

;; "H"
(assert (= rcon #x01000000))

;; "Assume"
(assert true)

;; "o"
(define-fun o () us_split_fields
  (us_split_fields1 key))

;; "__split_fields'result'unused"
(define-fun us_split_fieldsqtresultqtunused () us_split_fields
  o)

;; "temp___1277"
(define-fun temp___1277 () map1
  (rec__ada___sparknacl__aes__aes128_key__f o))

;; "rec__ada___sparknacl__aes__aes128_key__f'result'unused"
(define-fun rec__ada___sparknacl__aes__aes128_key__fqtresultqtunused 
  () map1
  temp___1277)

;; "H"
(assert (<= 0 3))

;; Goal "def'vc"
;; File "sparknacl-aes.ads", line 58, characters 0-0
(assert
  (not (<= 0 3)))

(check-sat)
